min: 14.4*X_0_0 + 25.4*X_0_1 + 21.1*X_0_2 + 16.0*X_0_3 + 21.1*X_0_4 + 27.0*X_0_5 + 24.7*X_0_6 + 13.4*X_0_7 + 17.9*X_0_8 + 20.4*X_0_9 + 25.8*X_1_0 + 23.5*X_1_1 + 25.0*X_1_2 + 19.5*X_1_3 + 17.0*X_1_4 + 22.4*X_1_5 + 16.7*X_1_6 + 16.1*X_1_7 + 21.4*X_1_8 + 20.7*X_1_9 + 16.9*X_2_0 + 15.6*X_2_1 + 23.2*X_2_2 + 14.7*X_2_3 + 30.4*X_2_4 + 18.5*X_2_5 + 20.5*X_2_6 + 22.0*X_2_7 + 19.4*X_2_8 + 16.0*X_2_9 + 25.3*X_3_0 + 20.8*X_3_1 + 19.8*X_3_2 + 23.2*X_3_3 + 10.6*X_3_4 + 22.3*X_3_5 + 27.5*X_3_6 + 21.0*X_3_7 + 20.5*X_3_8 + 21.6*X_3_9 + 17.3*X_4_0 + 18.5*X_4_1 + 21.9*X_4_2 + 23.4*X_4_3 + 18.9*X_4_4 + 19.3*X_4_5 + 21.9*X_4_6 + 16.6*X_4_7 + 15.6*X_4_8 + 25.5*X_4_9 + 20.6*X_5_0 + 23.3*X_5_1 + 20.1*X_5_2 + 18.6*X_5_3 + 15.8*X_5_4 + 8.2*X_5_5 + 17.7*X_5_6 + 24.0*X_5_7 + 11.0*X_5_8 + 18.5*X_5_9 + 21.0*X_6_0 + 22.7*X_6_1 + 13.3*X_6_2 + 25.9*X_6_3 + 19.4*X_6_4 + 14.3*X_6_5 + 10.6*X_6_6 + 17.9*X_6_7 + 22.6*X_6_8 + 15.7*X_6_9 + 19.7*X_7_0 + 21.1*X_7_1 + 23.1*X_7_2 + 25.3*X_7_3 + 17.9*X_7_4 + 28.9*X_7_5 + 14.1*X_7_6 + 16.5*X_7_7 + 18.9*X_7_8 + 18.9*X_7_9 + 17.4*X_8_0 + 23.4*X_8_1 + 15.2*X_8_2 + 20.8*X_8_3 + 14.3*X_8_4 + 22.1*X_8_5 + 14.7*X_8_6 + 19.1*X_8_7 + 28.6*X_8_8 + 24.0*X_8_9 + 22.9*X_9_0 + 19.2*X_9_1 + 23.3*X_9_2 + 20.3*X_9_3 + 20.1*X_9_4 + 27.6*X_9_5 + 14.5*X_9_6 + 18.9*X_9_7 + 18.3*X_9_8 + 19.3*X_9_9;

X_0_0 + X_0_1 + X_0_2 + X_0_3 + X_0_4 + X_0_5 + X_0_6 + X_0_7 + X_0_8 + X_0_9 <= 5;
X_1_0 + X_1_1 + X_1_2 + X_1_3 + X_1_4 + X_1_5 + X_1_6 + X_1_7 + X_1_8 + X_1_9 <= 5;
X_2_0 + X_2_1 + X_2_2 + X_2_3 + X_2_4 + X_2_5 + X_2_6 + X_2_7 + X_2_8 + X_2_9 <= 5;
X_3_0 + X_3_1 + X_3_2 + X_3_3 + X_3_4 + X_3_5 + X_3_6 + X_3_7 + X_3_8 + X_3_9 <= 5;
X_4_0 + X_4_1 + X_4_2 + X_4_3 + X_4_4 + X_4_5 + X_4_6 + X_4_7 + X_4_8 + X_4_9 <= 5;
X_5_0 + X_5_1 + X_5_2 + X_5_3 + X_5_4 + X_5_5 + X_5_6 + X_5_7 + X_5_8 + X_5_9 <= 5;
X_6_0 + X_6_1 + X_6_2 + X_6_3 + X_6_4 + X_6_5 + X_6_6 + X_6_7 + X_6_8 + X_6_9 <= 5;
X_7_0 + X_7_1 + X_7_2 + X_7_3 + X_7_4 + X_7_5 + X_7_6 + X_7_7 + X_7_8 + X_7_9 <= 5;
X_8_0 + X_8_1 + X_8_2 + X_8_3 + X_8_4 + X_8_5 + X_8_6 + X_8_7 + X_8_8 + X_8_9 <= 5;
X_9_0 + X_9_1 + X_9_2 + X_9_3 + X_9_4 + X_9_5 + X_9_6 + X_9_7 + X_9_8 + X_9_9 <= 5;
14.4 * X_0_0+25.4 * X_0_1+21.1 * X_0_2+16.0 * X_0_3+21.1 * X_0_4+27.0 * X_0_5+24.7 * X_0_6+13.4 * X_0_7+17.9 * X_0_8+20.4 * X_0_9 >= 64.8;
25.8 * X_1_0+23.5 * X_1_1+25.0 * X_1_2+19.5 * X_1_3+17.0 * X_1_4+22.4 * X_1_5+16.7 * X_1_6+16.1 * X_1_7+21.4 * X_1_8+20.7 * X_1_9 >= 75.6;
16.9 * X_2_0+15.6 * X_2_1+23.2 * X_2_2+14.7 * X_2_3+30.4 * X_2_4+18.5 * X_2_5+20.5 * X_2_6+22.0 * X_2_7+19.4 * X_2_8+16.0 * X_2_9 >= 69.1;
25.3 * X_3_0+20.8 * X_3_1+19.8 * X_3_2+23.2 * X_3_3+10.6 * X_3_4+22.3 * X_3_5+27.5 * X_3_6+21.0 * X_3_7+20.5 * X_3_8+21.6 * X_3_9 >= 64.7;
17.3 * X_4_0+18.5 * X_4_1+21.9 * X_4_2+23.4 * X_4_3+18.9 * X_4_4+19.3 * X_4_5+21.9 * X_4_6+16.6 * X_4_7+15.6 * X_4_8+25.5 * X_4_9 >= 75.4;
20.6 * X_5_0+23.3 * X_5_1+20.1 * X_5_2+18.6 * X_5_3+15.8 * X_5_4+8.2 * X_5_5+17.7 * X_5_6+24.0 * X_5_7+11.0 * X_5_8+18.5 * X_5_9 >= 65.9;
21.0 * X_6_0+22.7 * X_6_1+13.3 * X_6_2+25.9 * X_6_3+19.4 * X_6_4+14.3 * X_6_5+10.6 * X_6_6+17.9 * X_6_7+22.6 * X_6_8+15.7 * X_6_9 >= 69.2;
19.7 * X_7_0+21.1 * X_7_1+23.1 * X_7_2+25.3 * X_7_3+17.9 * X_7_4+28.9 * X_7_5+14.1 * X_7_6+16.5 * X_7_7+18.9 * X_7_8+18.9 * X_7_9 >= 73.7;
17.4 * X_8_0+23.4 * X_8_1+15.2 * X_8_2+20.8 * X_8_3+14.3 * X_8_4+22.1 * X_8_5+14.7 * X_8_6+19.1 * X_8_7+28.6 * X_8_8+24.0 * X_8_9 >= 70.9;
22.9 * X_9_0+19.2 * X_9_1+23.3 * X_9_2+20.3 * X_9_3+20.1 * X_9_4+27.6 * X_9_5+14.5 * X_9_6+18.9 * X_9_7+18.3 * X_9_8+19.3 * X_9_9 >= 76.1;
X_0_0 + X_1_0 + X_2_0 + X_3_0 + X_4_0 + X_5_0 + X_6_0 + X_7_0 + X_8_0 + X_9_0 <= 5;
X_0_1 + X_1_1 + X_2_1 + X_3_1 + X_4_1 + X_5_1 + X_6_1 + X_7_1 + X_8_1 + X_9_1 <= 5;
X_0_2 + X_1_2 + X_2_2 + X_3_2 + X_4_2 + X_5_2 + X_6_2 + X_7_2 + X_8_2 + X_9_2 <= 5;
X_0_3 + X_1_3 + X_2_3 + X_3_3 + X_4_3 + X_5_3 + X_6_3 + X_7_3 + X_8_3 + X_9_3 <= 5;
X_0_4 + X_1_4 + X_2_4 + X_3_4 + X_4_4 + X_5_4 + X_6_4 + X_7_4 + X_8_4 + X_9_4 <= 5;
X_0_5 + X_1_5 + X_2_5 + X_3_5 + X_4_5 + X_5_5 + X_6_5 + X_7_5 + X_8_5 + X_9_5 <= 5;
X_0_6 + X_1_6 + X_2_6 + X_3_6 + X_4_6 + X_5_6 + X_6_6 + X_7_6 + X_8_6 + X_9_6 <= 5;
X_0_7 + X_1_7 + X_2_7 + X_3_7 + X_4_7 + X_5_7 + X_6_7 + X_7_7 + X_8_7 + X_9_7 <= 5;
X_0_8 + X_1_8 + X_2_8 + X_3_8 + X_4_8 + X_5_8 + X_6_8 + X_7_8 + X_8_8 + X_9_8 <= 5;
X_0_9 + X_1_9 + X_2_9 + X_3_9 + X_4_9 + X_5_9 + X_6_9 + X_7_9 + X_8_9 + X_9_9 <= 5;
14.4* X_0_0 +25.8* X_1_0 +16.9* X_2_0 +25.3* X_3_0 +17.3* X_4_0 +20.6* X_5_0 +21.0* X_6_0 +19.7* X_7_0 +17.4* X_8_0 +22.9* X_9_0 <= 160;
25.4* X_0_1 +23.5* X_1_1 +15.6* X_2_1 +20.8* X_3_1 +18.5* X_4_1 +23.3* X_5_1 +22.7* X_6_1 +21.1* X_7_1 +23.4* X_8_1 +19.2* X_9_1 <= 160;
21.1* X_0_2 +25.0* X_1_2 +23.2* X_2_2 +19.8* X_3_2 +21.9* X_4_2 +20.1* X_5_2 +13.3* X_6_2 +23.1* X_7_2 +15.2* X_8_2 +23.3* X_9_2 <= 160;
16.0* X_0_3 +19.5* X_1_3 +14.7* X_2_3 +23.2* X_3_3 +23.4* X_4_3 +18.6* X_5_3 +25.9* X_6_3 +25.3* X_7_3 +20.8* X_8_3 +20.3* X_9_3 <= 160;
21.1* X_0_4 +17.0* X_1_4 +30.4* X_2_4 +10.6* X_3_4 +18.9* X_4_4 +15.8* X_5_4 +19.4* X_6_4 +17.9* X_7_4 +14.3* X_8_4 +20.1* X_9_4 <= 160;
27.0* X_0_5 +22.4* X_1_5 +18.5* X_2_5 +22.3* X_3_5 +19.3* X_4_5 +8.2* X_5_5 +14.3* X_6_5 +28.9* X_7_5 +22.1* X_8_5 +27.6* X_9_5 <= 160;
24.7* X_0_6 +16.7* X_1_6 +20.5* X_2_6 +27.5* X_3_6 +21.9* X_4_6 +17.7* X_5_6 +10.6* X_6_6 +14.1* X_7_6 +14.7* X_8_6 +14.5* X_9_6 <= 160;
13.4* X_0_7 +16.1* X_1_7 +22.0* X_2_7 +21.0* X_3_7 +16.6* X_4_7 +24.0* X_5_7 +17.9* X_6_7 +16.5* X_7_7 +19.1* X_8_7 +18.9* X_9_7 <= 160;
17.9* X_0_8 +21.4* X_1_8 +19.4* X_2_8 +20.5* X_3_8 +15.6* X_4_8 +11.0* X_5_8 +22.6* X_6_8 +18.9* X_7_8 +28.6* X_8_8 +18.3* X_9_8 <= 160;
20.4* X_0_9 +20.7* X_1_9 +16.0* X_2_9 +21.6* X_3_9 +25.5* X_4_9 +18.5* X_5_9 +15.7* X_6_9 +18.9* X_7_9 +24.0* X_8_9 +19.3* X_9_9 <= 160;
bin X_0_0,X_0_1,X_0_2,X_0_3,X_0_4,X_0_5,X_0_6,X_0_7,X_0_8,X_0_9,X_1_0,X_1_1,X_1_2,X_1_3,X_1_4,X_1_5,X_1_6,X_1_7,X_1_8,X_1_9,X_2_0,X_2_1,X_2_2,X_2_3,X_2_4,X_2_5,X_2_6,X_2_7,X_2_8,X_2_9,X_3_0,X_3_1,X_3_2,X_3_3,X_3_4,X_3_5,X_3_6,X_3_7,X_3_8,X_3_9,X_4_0,X_4_1,X_4_2,X_4_3,X_4_4,X_4_5,X_4_6,X_4_7,X_4_8,X_4_9,X_5_0,X_5_1,X_5_2,X_5_3,X_5_4,X_5_5,X_5_6,X_5_7,X_5_8,X_5_9,X_6_0,X_6_1,X_6_2,X_6_3,X_6_4,X_6_5,X_6_6,X_6_7,X_6_8,X_6_9,X_7_0,X_7_1,X_7_2,X_7_3,X_7_4,X_7_5,X_7_6,X_7_7,X_7_8,X_7_9,X_8_0,X_8_1,X_8_2,X_8_3,X_8_4,X_8_5,X_8_6,X_8_7,X_8_8,X_8_9,X_9_0,X_9_1,X_9_2,X_9_3,X_9_4,X_9_5,X_9_6,X_9_7,X_9_8,X_9_9;
